there are 20 jobs and 15 machines.
15 20
Academic license - for non-commercial use only
Number of variables: 180761
variáveis criadas. Tempo: 0.09375
initial flow constraints ok
final flow constraints ok
flow constraints created
processing constraints created
end constraints created
Optimize a model with 100577 rows, 180761 columns and 2625450 nonzeros
Coefficient statistics:
  Matrix range     [1e+00, 7e+02]
  Objective range  [1e+00, 1e+00]
  Bounds range     [1e+00, 7e+02]
  RHS range        [1e+00, 1e+00]

Concurrent LP optimizer: dual simplex and barrier
Showing barrier log only...

